[2026-03-24T16:32:26.402Z] Pipeline "set_vm-3-t2_vm-3-t2_s017_g002" → 2026_03_24_16_32_26_set_vm-3-t2_vm-3-t2_s017_g002_max.sol
Set parameter Username
Set parameter LicenseID to value 2796068
Set parameter LogFile to value "gurobi.log"
Using license file /opt/gurobi/gurobi.lic
Academic license - for non-commercial use only - expires 2027-03-23

Gurobi Optimizer version 13.0.1 build v13.0.1rc0 (linux64 - "Ubuntu 24.04.4 LTS")
Copyright (c) 2026, Gurobi Optimization, LLC

Warning: Duplicate section found (read 'binary') - Is a variable name equal to an LP file format keyword?
Warning: Duplicate section found (read 'binary') - Is a variable name equal to an LP file format keyword?
Warning: Duplicate section found (read 'binary') - Is a variable name equal to an LP file format keyword?
Warning: Duplicate section found (read 'binary') - Is a variable name equal to an LP file format keyword?
Warning: Duplicate section found (read 'binary') - Is a variable name equal to an LP file format keyword?
Warning: Duplicate section found (read 'binary') - Is a variable name equal to an LP file format keyword?
Warning: Duplicate section found (read 'binary') - Is a variable name equal to an LP file format keyword?
Warning: Duplicate section found (read 'binary') - Is a variable name equal to an LP file format keyword?
Warning: Duplicate section found (read 'binary') - Is a variable name equal to an LP file format keyword?
Warning: Duplicate section found (read 'binary') - Is a variable name equal to an LP file format keyword?
Warning: Further warnings of this type will be omitted.
Read LP format model from file /root/bgw/data/uploads/2026_03_24_16_32_26_set_vm-3-t2_vm-3-t2_s017_g002_max.lp
Reading time = 0.00 seconds
: 6149 rows, 438 columns, 18877 nonzeros

Using Gurobi shared library /opt/gurobi1301/linux64/lib/libgurobi.so.13.0.1

CPU model: AMD EPYC-Genoa Processor, instruction set [SSE2|AVX|AVX2|AVX512]
Thread count: 16 physical cores, 16 logical processors, using up to 16 threads

Optimize a model with 6149 rows, 438 columns and 18877 nonzeros (Max)
Model fingerprint: 0x5a8785a7
Model has 16 linear objective coefficients
Variable types: 43 continuous, 395 integer (395 binary)
Coefficient statistics:
  Matrix range     [1e+00, 3e+01]
  Objective range  [1e+00, 1e+00]
  Bounds range     [1e+00, 1e+00]
  RHS range        [1e+00, 3e+01]

Found heuristic solution: objective 16.0000000
Presolve removed 274 rows and 72 columns
Presolve time: 0.02s
Presolved: 5875 rows, 366 columns, 17745 nonzeros
Variable types: 0 continuous, 366 integer (361 binary)
Found heuristic solution: objective 23.0000000

Root relaxation: objective 8.600000e+01, 178 iterations, 0.01 seconds (0.01 work units)

    Nodes    |    Current Node    |     Objective Bounds      |     Work
 Expl Unexpl |  Obj  Depth IntInf | Incumbent    BestBd   Gap | It/Node Time

     0     0   86.00000    0   31   23.00000   86.00000   274%     -    0s
H    0     0                      44.0000000   86.00000  95.5%     -    0s
     0     0   86.00000    0   22   44.00000   86.00000  95.5%     -    0s
     0     0   86.00000    0   20   44.00000   86.00000  95.5%     -    0s
     0     0   85.72000    0   16   44.00000   85.72000  94.8%     -    0s
     0     0   85.72000    0   14   44.00000   85.72000  94.8%     -    0s
     0     0   79.00000    0   14   44.00000   79.00000  79.5%     -    0s
     0     0   79.00000    0   13   44.00000   79.00000  79.5%     -    0s
     0     0   79.00000    0   14   44.00000   79.00000  79.5%     -    0s
     0     0   79.00000    0   14   44.00000   79.00000  79.5%     -    0s
     0     0   79.00000    0   14   44.00000   79.00000  79.5%     -    0s
     0     0   79.00000    0   14   44.00000   79.00000  79.5%     -    0s
     0     0   79.00000    0   14   44.00000   79.00000  79.5%     -    0s
     0     0   79.00000    0   15   44.00000   79.00000  79.5%     -    0s
     0     0   79.00000    0   14   44.00000   79.00000  79.5%     -    0s
     0     0   78.72000    0   14   44.00000   78.72000  78.9%     -    0s
     0     0   78.72000    0   12   44.00000   78.72000  78.9%     -    0s
     0     0   78.72000    0   12   44.00000   78.72000  78.9%     -    0s
     0     0   78.16000    0   12   44.00000   78.16000  77.6%     -    0s
     0     0   77.88000    0   12   44.00000   77.88000  77.0%     -    0s
     0     0   77.88000    0   12   44.00000   77.88000  77.0%     -    0s
     0     0   72.00000    0   12   44.00000   72.00000  63.6%     -    0s
     0     0   72.00000    0   12   44.00000   72.00000  63.6%     -    0s
     0     2   72.00000    0   12   44.00000   72.00000  63.6%     -    0s

Cutting planes:
  Gomory: 4
  Cover: 1
  MIR: 12
  StrongCG: 2
  Inf proof: 4
  Zero half: 4
  Mod-K: 5

Explored 664 nodes (42908 simplex iterations) in 0.71 seconds (1.02 work units)
Thread count was 16 (of 16 available processors)

Solution count 3: 44 23 16 

Optimal solution found (tolerance 1.00e-04)
Best objective 4.400000000000e+01, best bound 4.400000000000e+01, gap 0.0000%

Wrote result file '/root/bgw/data/results/2026_03_24_16_32_26_set_vm-3-t2_vm-3-t2_s017_g002_max.sol'

